# Objective value = 3.2111111111111117e+00
L_4 2.0000000000000004e+00
L_5 0
L_6 0
L_7 0
d_1 1
d_2 0
d_3 0
a_0_1 0
a_1_1 0
a_2_1 0
a_3_1 1
b_1 1
a_0_2 0
a_1_2 0
a_2_2 0
a_3_2 0
b_2 0
a_0_3 0
a_1_3 0
a_2_3 0
a_3_3 0
b_3 0
z_0_4 1
l_4 1
z_1_4 0
z_2_4 1
z_3_4 1
z_4_4 1
z_5_4 0
z_6_4 0
z_7_4 1
z_8_4 1
z_9_4 1
z_10_4 0
z_11_4 0
z_12_4 1
z_13_4 0
z_0_5 0
l_5 0
z_1_5 0
z_2_5 0
z_3_5 0
z_4_5 0
z_5_5 0
z_6_5 0
z_7_5 0
z_8_5 0
z_9_5 0
z_10_5 0
z_11_5 0
z_12_5 0
z_13_5 0
z_0_6 0
l_6 1
z_1_6 0
z_2_6 0
z_3_6 0
z_4_6 0
z_5_6 0
z_6_6 1
z_7_6 0
z_8_6 0
z_9_6 0
z_10_6 1
z_11_6 1
z_12_6 0
z_13_6 0
z_0_7 0
l_7 1
z_1_7 1
z_2_7 0
z_3_7 0
z_4_7 0
z_5_7 1
z_6_7 0
z_7_7 0
z_8_7 0
z_9_7 0
z_10_7 0
z_11_7 0
z_12_7 0
z_13_7 1
N_0_4 2
N_0_5 0
N_0_6 0
N_0_7 3
N_1_4 6
N_1_5 0
N_1_6 3
N_1_7 0
N_4 8
N_5 0
N_6 3
N_7 3
c_0_4 0
c_1_4 1
c_0_5 0
c_1_5 0
c_0_6 0
c_1_6 1
c_0_7 1
c_1_7 0
